282,277
441,284
536,301
342,160
729,371
681,226
681,196
488,140
681,46
765,-127
742,21
935,152
1137,258
1071,406
698,430
627,512
681,556
948,542
847,919
764,662
639,672
245,723
415,448
510,461
1081,610
710,402
702,427
761,366
909,480
894,514
826,301
713,199
613,273
563,388
518,86
515,919
